p cnf 33 47
-8 23 0 
-16 24 0 
-13 18 0 
-16 23 0 
-28 4 0 
-23 8 16 0 
-16 25 0 
-29 14 0 
-9 17 0 
-18 7 13 0 
-4 32 0 
-24 2 16 0 
-6 20 0 
-26 1 0 
-32 3 4 14 0 
-8 22 0 
-27 5 0 
-1 26 0 
-14 32 0 
-21 5 0 
2 4 0 
-14 29 0 
-5 21 0 
-10 31 0 
2 14 0 
5 11 0 
-9 33 0 
-7 19 0 
-5 27 0 
-22 8 0 
-33 9 15 0 
-3 32 0 
-19 7 0 
-31 10 0 
-17 5 9 0 
-2 24 0 
-13 30 0 
-15 33 0 
-4 28 0 
-5 17 0 
-12 25 0 
-20 6 0 
2 14 15 0 
-25 12 16 0 
8 16 0 
-30 13 0 
-7 18 0 
